[runlim] version:		1.10
[runlim] time limit:		311040000 seconds
[runlim] real time limit:	600 seconds
[runlim] space limit:		14000 MB
[runlim] argv[0]:		python3
[runlim] argv[1]:		cp.py
[runlim] argv[2]:		graph03
[runlim] start:			Sat Jan 24 21:53:14 2026
[runlim] main pid:		118766
[runlim] sample:		10.0 time, 10.1 real, 1083.8 MB
Building CP model...
Solving CP Optimizer...
 ! --------------------------------------------------- CP Optimizer 22.1.1.0 --
 ! Minimization problem - 7576 variables, 471812 constraints
 ! Presolve      : 472014 extractables eliminated
 ! LogVerbosity         = Terse
 ! Initial process time : 3.65s (3.63s extraction + 0.03s propagation)
 !  . Log search space  : 7576.0 (before), 7576.0 (after)
 !  . Memory usage      : 61.5 MB (before), 61.5 MB (after)
 ! Using parallel search with 12 workers.
 ! ----------------------------------------------------------------------------
 !          Best Branches  Non-fixed    W       Branch decision
                        0       7576                 -
 + New bound is 0
                        0       7576    1            -
 + New bound is 1
[runlim] sample:		77.9 time, 20.1 real, 2189.6 MB
 *            42    56196  18.44s       1      (gap is 97.62%)
 *            40    51086  20.88s       5      (gap is 97.50%)
 *            38    48428  21.38s      10      (gap is 97.37%)
[runlim] sample:		145.7 time, 30.1 real, 2396.8 MB
 *            36    64393  23.88s      12      (gap is 97.22%)
 *            35    84736  25.46s       4      (gap is 97.14%)
 *            34    84772  25.69s       4      (gap is 97.06%)
 *            33    84924  25.90s       4      (gap is 96.97%)
 *            32    84928  25.96s       4      (gap is 96.88%)
 *            31    88186  27.26s       1      (gap is 96.77%)
 *            30    88345  27.33s       1      (gap is 96.67%)
 *            29    87445  27.53s       4      (gap is 96.55%)
 *            28    89526  27.71s       1      (gap is 96.43%)
 *            27    90656  28.95s       1      (gap is 96.30%)
 *            26    90133  29.57s       4      (gap is 96.15%)
 *            25    96865  30.19s       9      (gap is 96.00%)
 *            24    92416  30.82s       4      (gap is 95.83%)
[runlim] sample:		216.4 time, 40.1 real, 2661.3 MB
 *            23    99077  31.76s       9      (gap is 95.65%)
 *            22    85828  32.99s       5      (gap is 95.45%)
 ! Time = 32.99s, Average fail depth = 386, Memory usage = 1.9 GB
 ! Current bound is 1 (gap is 95.45%)
 !          Best Branches  Non-fixed    W       Branch decision
 *            21    89065  34.92s       5      (gap is 95.24%)
 *            20    96822  35.92s       4      (gap is 95.00%)
[runlim] sample:		284.5 time, 50.1 real, 2780.2 MB
[runlim] sample:		356.6 time, 60.1 real, 2803.9 MB
[runlim] sample:		438.5 time, 70.1 real, 2838.0 MB
[runlim] sample:		520.7 time, 80.1 real, 2859.9 MB
[runlim] sample:		601.8 time, 90.1 real, 2866.2 MB
[runlim] sample:		679.2 time, 100.1 real, 2881.4 MB
[runlim] sample:		758.7 time, 110.1 real, 2886.3 MB
[runlim] sample:		842.9 time, 120.1 real, 2890.8 MB
[runlim] sample:		925.7 time, 130.1 real, 2893.2 MB
[runlim] sample:		1010.0 time, 140.1 real, 2893.3 MB
[runlim] sample:		1093.7 time, 150.1 real, 2867.6 MB
[runlim] sample:		1173.4 time, 160.1 real, 2869.7 MB
[runlim] sample:		1250.0 time, 170.1 real, 2848.0 MB
              20     441k       1882    1   F     0 != x_95_240
 + New bound is 2 (gap is 90.00%)
[runlim] sample:		1326.1 time, 180.1 real, 2850.5 MB
[runlim] sample:		1408.9 time, 190.1 real, 2850.7 MB
[runlim] sample:		1495.9 time, 200.1 real, 2851.1 MB
[runlim] sample:		1581.8 time, 210.1 real, 2851.1 MB
[runlim] sample:		1667.1 time, 220.1 real, 2851.1 MB
[runlim] sample:		1747.5 time, 230.1 real, 2851.1 MB
[runlim] sample:		1827.0 time, 240.1 real, 2851.3 MB
[runlim] sample:		1907.2 time, 250.1 real, 2851.3 MB
[runlim] sample:		1985.6 time, 260.1 real, 2851.3 MB
[runlim] sample:		2068.8 time, 270.1 real, 2851.5 MB
[runlim] sample:		2150.1 time, 280.1 real, 2875.1 MB
[runlim] sample:		2229.2 time, 290.1 real, 2875.3 MB
[runlim] sample:		2310.5 time, 300.1 real, 2876.0 MB
[runlim] sample:		2396.2 time, 310.1 real, 2876.1 MB
[runlim] sample:		2481.9 time, 320.1 real, 2876.1 MB
[runlim] sample:		2564.7 time, 330.1 real, 2876.1 MB
[runlim] sample:		2642.0 time, 340.1 real, 2876.1 MB
              20     710k        700    2   F     0 != x_18_58
 + New bound is 3 (gap is 85.00%)
[runlim] sample:		2722.4 time, 350.1 real, 2876.2 MB
              20     684k        978    7   F     0 != x_197_540
 + New bound is 4 (gap is 80.00%)
[runlim] sample:		2804.0 time, 360.1 real, 2876.2 MB
[runlim] sample:		2885.4 time, 370.1 real, 2876.2 MB
[runlim] sample:		2970.9 time, 380.1 real, 2876.3 MB
[runlim] sample:		3052.5 time, 390.1 real, 2876.3 MB
[runlim] sample:		3137.2 time, 400.1 real, 2876.3 MB
[runlim] sample:		3224.0 time, 410.1 real, 2876.3 MB
[runlim] sample:		3312.1 time, 420.1 real, 2876.3 MB
[runlim] sample:		3402.2 time, 430.1 real, 2876.3 MB
[runlim] sample:		3488.9 time, 440.1 real, 2876.3 MB
[runlim] sample:		3575.0 time, 450.1 real, 2876.3 MB
[runlim] sample:		3661.8 time, 460.1 real, 2876.5 MB
[runlim] sample:		3744.4 time, 470.1 real, 2876.5 MB
              20    1016k       5508   11   F     0 != x_96_380
 + New bound is 5 (gap is 75.00%)
[runlim] sample:		3827.4 time, 480.1 real, 2876.5 MB
[runlim] sample:		3914.1 time, 490.1 real, 2876.6 MB
[runlim] sample:		3997.7 time, 500.1 real, 2876.6 MB
[runlim] sample:		4081.9 time, 510.1 real, 2876.7 MB
[runlim] sample:		4165.1 time, 520.1 real, 2876.7 MB
[runlim] sample:		4248.4 time, 530.1 real, 2876.7 MB
              20    1230k       3750    4   F     0 != x_96_380
 + New bound is 6 (gap is 70.00%)
[runlim] sample:		4330.1 time, 540.1 real, 2876.8 MB
[runlim] sample:		4412.7 time, 550.1 real, 2876.8 MB
[runlim] sample:		4495.8 time, 560.1 real, 2876.8 MB
[runlim] sample:		4580.1 time, 570.1 real, 2877.0 MB
[runlim] sample:		4665.7 time, 580.1 real, 2888.7 MB
[runlim] sample:		4750.4 time, 590.1 real, 2889.3 MB
[runlim] sample:		4836.3 time, 600.1 real, 2889.3 MB
[runlim] end:			Sat Jan 24 22:03:14 2026
[runlim] status:		out of time
[runlim] result:		2
[runlim] children:		5965
[runlim] real:			600.12 seconds
[runlim] time:			4836.35 seconds
[runlim] space:			3890.9 MB
[runlim] samples:		6000
